NAME: random86
TYPE: TSP
DIMENSION: 86
EDGE_WEIGHT_TYPE: EXPLICIT
EDGE_WEIGHT_FORMAT: FULL_MATRIX
EDGE_WEIGHT_SECTION
0 127 127 127 127 127 127 127 11 127 127 127 127 127 43 127 7 25 127 127 127 127 127 127 127 127 127 127 7 127 11 127 127 127 127 127 127 8 127 23 24 15 127 127 18 127 127 127 127 19 127 15 127 127 127 127 127 127 127 127 22 127 127 22 74 127 127 22 127 127 127 127 127 127 3 127 127 127 127 127 127 127 127 127 127 127
127 0 12 127 127 13 127 127 127 127 15 127 127 2 127 127 127 127 127 127 127 127 127 29 127 127 127 127 127 127 60 127 127 127 127 127 127 127 127 127 32 127 127 127 37 127 127 127 127 64 127 127 127 127 9 127 127 127 127 127 127 127 127 38 23 127 127 127 127 127 5 2 127 3 127 127 127 127 17 33 127 127 127 15 21 127
127 12 0 127 127 18 127 127 127 127 6 127 30 10 127 12 127 127 127 127 127 127 127 19 127 127 127 10 127 127 127 127 127 24 127 127 127 38 127 24 25 127 127 127 29 127 127 127 127 57 127 127 127 127 13 127 127 12 127 127 127 127 127 32 34 127 127 34 127 127 8 11 127 13 127 127 24 127 20 127 127 127 127 16 10 127
127 127 127 0 127 127 127 127 37 127 127 127 17 127 37 127 127 20 127 27 127 127 127 127 127 13 127 127 127 127 127 127 9 127 127 127 127 127 21 32 127 127 8 8 127 16 127 17 127 127 127 127 29 127 127 127 127 34 127 127 127 20 127 127 127 23 127 23 127 127 127 127 127 127 127 10 20 127 127 127 12 127 22 127 127 14
127 127 127 127 0 127 29 127 127 127 127 21 127 127 127 127 127 127 43 29 127 9 18 127 127 28 127 127 127 127 127 127 127 127 5 30 29 127 20 127 127 127 127 21 127 12 18 127 127 127 127 127 127 18 127 17 127 127 20 14 127 9 127 127 127 21 22 127 127 10 127 127 24 127 127 127 127 127 127 127 127 127 127 127 127 19
127 13 18 127 127 0 127 127 127 15 17 127 127 14 127 20 127 127 127 127 127 127 127 127 127 127 127 20 127 41 127 127 127 16 127 127 127 127 127 127 127 127 127 127 127 127 127 127 127 127 127 127 127 127 23 127 24 127 127 127 127 127 38 49 26 127 127 127 127 127 17 11 127 10 127 127 127 127 4 20 127 127 127 6 23 127
127 127 127 127 29 127 0 127 127 127 127 127 127 127 127 127 127 127 23 127 127 127 127 127 4 127 127 127 127 27 127 127 127 127 27 59 127 127 127 127 127 127 127 127 127 127 127 25 127 127 127 127 23 12 127 22 127 127 127 18 127 26 20 127 127 18 127 127 127 30 127 127 8 127 127 127 127 20 127 43 127 127 127 127 127 27
127 127 127 127 127 127 127 0 53 127 127 22 127 127 22 127 127 45 127 16 127 127 127 127 127 30 3 127 127 127 127 3 35 127 127 127 16 127 26 127 127 127 42 127 127 127 127 127 18 127 9 127 127 127 127 127 127 127 127 127 127 127 127 127 127 127 21 127 3 127 127 127 127 127 127 127 127 127 127 127 127 127 24 127 127 127
11 127 127 37 127 127 127 53 0 127 127 127 127 127 32 127 11 18 127 46 127 127 127 30 127 36 127 127 14 127 20 127 35 127 127 127 127 15 127 25 127 20 29 127 26 127 127 127 127 27 127 21 127 127 127 127 127 127 127 127 29 127 127 31 127 127 127 19 127 127 127 127 127 127 10 127 36 127 127 127 38 127 33 127 127 127
127 127 127 127 127 15 127 127 127 0 24 127 33 127 127 22 127 127 127 127 23 127 127 127 38 127 127 24 127 26 127 127 127 7 127 127 127 127 127 127 127 127 127 127 127 127 127 127 127 127 127 127 127 127 127 127 12 127 127 127 127 127 23 127 40 127 127 127 127 127 127 26 127 25 127 127 127 127 12 7 127 21 127 13 127 127
127 15 6 127 127 17 127 127 127 24 0 127 25 14 127 6 127 127 127 127 127 127 127 21 127 127 127 5 127 127 127 127 127 19 127 127 127 127 127 25 29 127 127 127 33 127 127 127 127 127 127 127 127 127 19 127 24 6 127 127 127 127 127 127 38 127 127 127 127 127 13 14 127 16 127 127 21 127 18 127 127 27 127 13 6 127
127 127 127 127 21 127 127 22 127 127 127 0 127 127 127 127 127 127 127 11 127 23 4 127 127 21 21 127 127 127 127 127 127 127 23 15 9 127 9 127 127 127 127 127 127 127 3 127 20 127 22 127 127 127 127 127 127 127 4 127 127 127 127 127 127 127 4 127 127 26 127 127 127 127 127 127 127 127 127 127 127 127 127 127 127 127
127 127 30 17 127 127 127 127 127 33 25 127 0 127 127 20 127 29 127 127 16 127 127 29 32 127 127 21 42 127 127 127 26 27 127 127 127 127 127 29 127 127 21 23 127 23 127 12 127 127 127 127 15 28 127 127 23 19 127 127 127 26 32 127 127 18 127 27 127 127 127 127 127 127 127 11 11 127 127 39 8 17 127 32 21 16
127 2 10 127 127 14 127 127 127 127 14 127 127 0 127 20 127 127 127 127 127 127 127 28 127 127 127 19 127 127 127 127 127 127 127 127 127 127 127 127 31 127 127 127 127 127 127 127 127 127 127 127 127 127 9 127 127 127 127 127 127 127 127 37 24 127 127 127 127 127 3 3 127 4 127 127 127 127 127 127 127 127 127 15 19 127
43 127 127 37 127 127 127 22 32 127 127 127 127 127 0 127 41 30 127 23 127 127 127 127 127 25 25 127 45 127 50 25 29 127 127 127 33 127 31 50 127 47 32 35 127 127 127 127 127 57 30 49 127 127 127 127 127 127 127 127 55 127 127 127 127 127 31 39 24 127 127 127 127 127 42 127 127 127 127 127 47 127 16 127 127 127
127 127 12 127 127 20 127 127 127 22 6 127 20 20 127 0 127 127 127 127 23 127 127 22 127 127 127 2 127 43 127 127 127 17 127 127 127 127 127 127 127 127 127 127 127 127 127 31 127 127 127 127 24 127 127 127 20 2 127 127 127 127 35 127 127 35 127 32 127 127 127 20 127 21 127 31 17 127 20 29 23 22 127 15 5 127
7 127 127 127 127 127 127 127 11 127 127 127 127 127 41 127 0 28 127 127 127 127 127 127 127 127 127 127 14 127 9 127 127 127 127 127 127 15 127 127 127 10 127 127 25 127 127 127 127 17 127 10 127 127 127 127 127 127 127 127 18 127 127 28 81 127 127 27 127 127 127 127 127 127 9 127 127 127 127 127 127 127 44 127 127 127
25 127 127 20 127 127 127 45 18 127 127 127 29 127 30 127 28 0 127 34 127 127 127 127 127 21 47 127 22 127 127 127 18 127 127 127 127 23 33 21 127 38 11 25 127 127 127 127 127 127 127 39 127 127 127 127 127 127 127 127 46 127 127 127 127 127 127 9 47 127 127 127 127 127 23 28 22 127 127 127 21 127 22 127 127 127
127 127 127 127 43 127 23 127 127 127 127 127 127 127 127 127 127 127 0 127 127 41 127 127 26 127 127 127 127 37 127 127 127 127 44 68 127 127 127 127 127 127 127 127 127 127 127 127 127 127 127 127 46 32 127 28 127 127 62 29 127 127 37 127 127 127 127 127 127 38 127 127 21 127 127 127 127 5 127 59 127 127 127 127 127 127
127 127 127 27 29 127 127 16 46 127 127 11 127 127 23 127 127 34 127 0 127 127 12 127 127 15 16 127 127 127 127 17 20 127 30 23 13 127 10 127 127 65 28 21 127 29 14 127 24 127 20 127 127 127 127 127 127 127 15 127 127 127 127 127 127 127 8 42 17 127 127 127 127 127 127 127 127 127 127 127 127 127 13 127 127 34
127 127 127 127 127 127 127 127 127 23 127 127 16 127 127 23 127 127 127 127 0 127 127 127 21 127 127 127 127 27 127 127 127 18 127 127 127 127 127 127 127 127 127 127 127 127 127 17 127 127 127 127 3 24 127 127 11 23 127 127 127 127 16 127 127 17 127 127 127 127 127 127 127 127 127 22 127 42 127 27 127 2 127 127 127 127
127 127 127 127 9 127 127 127 127 127 127 23 127 127 127 127 127 127 41 127 127 0 22 127 127 127 127 127 127 127 127 127 127 127 14 28 30 127 26 127 127 127 127 127 127 127 20 127 36 127 43 127 127 23 127 13 127 127 21 14 127 127 127 127 127 127 26 127 127 3 127 127 25 127 127 127 127 127 127 127 127 127 127 127 127 127
127 127 127 127 18 127 127 127 127 127 127 4 127 127 127 127 127 127 127 12 127 22 0 127 127 18 24 127 127 127 127 127 127 127 20 19 13 127 6 127 127 127 127 19 127 21 4 127 127 127 127 127 127 35 127 127 127 127 6 32 127 22 127 127 127 127 4 127 127 24 127 127 127 127 127 127 127 127 127 127 127 127 22 127 127 127
127 29 19 127 127 127 127 127 30 127 21 127 29 28 127 22 127 127 127 127 127 127 127 0 127 127 127 20 20 127 35 127 127 127 127 127 127 20 127 6 12 127 30 127 14 127 127 127 127 127 127 127 127 127 25 127 127 20 127 127 127 127 127 20 51 127 127 17 127 127 24 30 127 127 25 127 18 127 127 127 25 127 127 34 16 127
127 127 127 127 127 127 4 127 127 38 127 127 32 127 127 127 127 127 26 127 21 127 127 127 0 127 127 127 127 24 127 127 127 127 29 127 127 127 127 127 127 127 127 127 127 29 127 24 127 127 127 127 20 13 127 26 28 127 127 21 127 27 16 127 78 18 127 127 127 127 127 127 12 127 127 31 127 22 49 39 127 22 127 127 127 27
127 127 127 13 28 127 127 30 36 127 127 21 127 127 25 127 127 21 127 15 127 127 18 127 127 0 31 127 127 127 127 127 5 127 26 127 27 127 12 127 127 127 13 10 127 22 127 127 127 127 127 127 127 127 127 127 127 127 127 127 127 25 127 127 127 127 17 28 31 127 127 127 127 127 127 22 127 127 127 127 25 127 9 127 127 24
127 127 127 127 127 127 127 3 127 127 127 21 127 127 25 127 127 47 127 16 127 127 24 127 127 31 0 127 127 127 127 1 127 127 127 21 13 127 25 127 127 127 127 127 127 127 127 127 15 127 6 127 127 127 127 127 127 127 22 127 127 127 127 127 127 127 20 127 1 127 127 127 127 127 127 127 127 127 127 127 127 127 25 127 127 127
127 127 10 127 127 20 127 127 127 24 5 127 21 19 127 2 127 127 127 127 127 127 127 20 127 127 127 0 127 127 127 127 127 18 127 127 127 127 127 24 30 127 127 127 127 127 127 127 127 127 127 127 26 127 127 127 22 2 127 127 127 127 127 127 127 127 127 127 127 127 127 19 127 127 127 127 16 127 127 127 23 24 127 15 3 127
7 127 127 127 127 127 127 127 14 127 127 127 42 127 45 127 14 22 127 127 127 127 127 20 127 127 127 127 0 127 17 127 127 127 127 127 127 1 127 16 18 22 33 127 12 127 127 127 127 127 127 127 127 127 127 127 127 127 127 127 127 127 127 18 127 127 127 17 127 127 127 127 127 127 5 127 32 127 127 127 36 127 42 127 36 127
127 127 127 127 127 41 27 127 127 26 127 127 127 127 127 43 127 127 37 127 27 127 127 127 24 127 127 127 127 0 127 127 127 28 127 85 127 127 127 127 127 127 127 127 127 127 127 41 127 127 127 127 28 37 127 49 23 127 127 46 127 127 11 127 64 37 127 127 127 127 127 127 35 51 127 127 127 32 37 22 127 26 127 38 127 127
11 60 127 127 127 127 127 127 20 127 127 127 127 127 50 127 9 127 127 127 127 127 127 35 127 127 127 127 17 127 0 127 127 127 127 127 127 16 127 32 28 8 127 127 23 127 127 127 127 8 127 6 127 127 53 127 127 127 127 127 12 127 127 23 78 127 127 127 127 127 127 127 127 127 13 127 127 127 127 127 127 127 127 127 127 127
127 127 127 127 127 127 127 3 127 127 127 127 127 127 25 127 127 127 127 17 127 127 127 127 127 127 1 127 127 127 127 0 127 127 127 21 14 127 127 127 127 127 127 127 127 127 127 127 15 127 5 127 127 127 127 127 127 127 127 127 127 127 127 127 127 127 20 127 1 127 127 127 127 127 127 127 127 127 127 127 127 127 127 127 127 127
127 127 127 9 127 127 127 35 35 127 127 127 26 127 29 127 127 18 127 20 127 127 127 127 127 5 127 127 127 127 127 127 0 127 26 127 127 127 16 127 127 127 9 8 127 20 127 25 127 127 127 127 127 127 127 127 127 127 127 127 127 127 127 127 127 127 21 25 127 127 127 127 127 127 127 18 27 127 127 127 20 127 13 127 127 20
127 127 24 127 127 16 127 127 127 7 19 127 27 127 127 17 127 127 127 127 18 127 127 127 127 127 127 18 127 28 127 127 127 0 127 127 127 127 127 127 127 127 127 127 127 127 127 127 127 127 127 127 21 127 127 127 8 18 127 127 127 127 23 127 42 127 127 127 127 127 127 24 127 127 127 127 127 127 13 13 127 16 127 11 22 127
127 127 127 127 5 127 27 127 127 127 127 23 127 127 127 127 127 127 44 30 127 14 20 127 29 26 127 127 127 127 127 127 26 127 0 34 127 127 20 127 127 127 127 17 127 7 21 19 127 127 127 127 31 15 127 19 127 127 127 15 127 4 127 127 127 17 24 127 127 15 127 127 23 127 127 20 127 43 127 127 127 127 127 127 127 14
127 127 127 127 30 127 59 127 127 127 127 15 127 127 127 127 127 127 68 23 127 28 19 127 127 127 21 127 127 85 127 21 127 127 34 0 10 127 127 127 127 127 127 127 127 127 15 127 9 127 18 127 127 48 127 40 127 127 13 42 127 127 127 127 127 127 19 127 127 30 127 127 52 127 127 127 127 69 127 127 127 127 127 127 127 127
127 127 127 127 29 127 127 16 127 127 127 9 127 127 33 127 127 127 127 13 127 30 13 127 127 27 13 127 127 127 127 14 127 127 127 10 0 127 17 127 127 127 127 31 127 127 12 127 11 127 13 127 127 127 127 43 127 127 9 127 127 127 127 127 127 127 11 127 15 33 127 127 127 127 127 127 127 127 127 127 127 127 26 127 127 127
8 127 38 127 127 127 127 127 15 127 127 127 127 127 127 127 15 23 127 127 127 127 127 20 127 127 127 127 1 127 16 127 127 127 127 127 127 0 127 16 17 23 127 127 11 127 127 127 127 23 127 21 127 127 41 127 127 127 127 127 28 127 127 17 67 127 127 18 127 127 127 127 127 127 6 127 32 127 127 127 36 127 127 127 36 127
127 127 127 21 20 127 127 26 127 127 127 9 127 127 31 127 127 33 127 10 127 26 6 127 127 12 25 127 127 127 127 127 16 127 20 127 17 127 0 127 127 127 25 14 127 19 10 31 127 127 28 127 127 35 127 36 127 127 12 34 127 21 127 127 127 33 6 127 127 28 127 127 43 127 127 26 127 127 127 127 127 127 17 127 127 25
23 127 24 32 127 127 127 127 25 127 25 127 29 127 50 127 127 21 127 127 127 127 127 6 127 127 127 24 16 127 32 127 127 127 127 127 127 16 127 0 14 127 27 127 13 127 127 127 127 38 127 127 127 127 31 127 127 24 127 127 127 127 127 21 127 127 127 12 127 127 127 127 127 127 21 35 18 127 127 127 24 127 127 127 20 127
24 32 25 127 127 127 127 127 127 127 29 127 127 31 127 127 127 127 127 127 127 127 127 12 127 127 127 30 18 127 28 127 127 127 127 127 127 17 127 14 0 127 127 127 6 127 127 127 127 33 127 127 127 127 25 127 127 31 127 127 127 127 127 8 51 127 127 25 127 127 27 33 127 35 127 127 30 127 127 127 127 127 127 127 27 127
15 127 127 127 127 127 127 127 20 127 127 127 127 127 47 127 10 38 127 65 127 127 127 127 127 127 127 127 22 127 8 127 127 127 127 127 127 23 127 127 127 0 49 127 127 127 127 127 127 11 127 3 127 127 127 127 127 127 127 127 8 127 127 32 127 127 127 37 127 127 127 127 127 127 18 127 127 127 127 127 127 127 52 127 127 127
127 127 127 8 127 127 127 42 29 127 127 127 21 127 32 127 127 11 127 28 127 127 127 30 127 13 127 127 33 127 127 127 9 127 127 127 127 127 25 27 127 49 0 14 127 127 127 25 127 127 127 127 127 127 127 127 127 34 127 127 127 127 127 127 127 127 127 16 127 127 127 127 127 127 34 17 19 127 127 127 14 127 19 127 127 22
127 127 127 8 21 127 127 127 127 127 127 127 23 127 35 127 127 25 127 21 127 127 19 127 127 10 127 127 127 127 127 127 8 127 17 127 31 127 14 127 127 127 14 0 127 12 127 19 127 127 127 127 32 29 127 127 127 127 127 32 127 15 127 127 127 23 20 31 127 127 127 127 127 127 127 13 28 127 127 127 20 127 19 127 127 14
18 37 29 127 127 127 127 127 26 127 33 127 127 127 127 127 25 127 127 127 127 127 127 14 127 127 127 127 12 127 23 127 127 127 127 127 127 11 127 13 6 127 127 127 0 127 127 127 127 28 127 29 127 127 30 127 127 34 127 127 127 127 127 8 56 127 127 22 127 127 32 127 127 127 17 127 31 127 127 127 37 127 127 127 30 127
127 127 127 16 12 127 127 127 127 127 127 127 23 127 127 127 127 127 127 29 127 127 21 127 29 22 127 127 127 127 127 127 20 127 7 127 127 127 19 127 127 127 127 12 127 0 23 13 127 127 127 127 26 17 127 127 127 127 127 21 127 4 127 127 127 14 24 127 127 22 127 127 27 127 127 13 127 127 127 127 24 127 31 127 127 8
127 127 127 127 18 127 127 127 127 127 127 3 127 127 127 127 127 127 127 14 127 20 4 127 127 127 127 127 127 127 127 127 127 127 21 15 12 127 10 127 127 127 127 127 127 23 0 127 21 127 127 127 127 127 127 32 127 127 3 32 127 127 127 127 127 127 7 127 127 22 127 127 127 127 127 127 127 127 127 127 127 127 127 127 127 127
127 127 127 17 127 127 25 127 127 127 127 127 12 127 127 31 127 127 127 127 17 127 127 127 24 127 127 127 127 41 127 127 25 127 19 127 127 127 31 127 127 127 25 19 127 13 127 0 127 127 127 127 14 17 127 127 27 30 127 127 127 15 29 127 127 7 127 36 127 127 127 127 127 127 127 8 23 127 127 127 17 18 127 127 127 6
127 127 127 127 127 127 127 18 127 127 127 20 127 127 127 127 127 127 127 24 127 36 127 127 127 127 15 127 127 127 127 15 127 127 127 9 11 127 127 127 127 127 127 127 127 127 21 127 0 127 11 127 127 127 127 127 127 127 19 127 127 127 127 127 127 127 22 127 16 39 127 127 127 127 127 127 127 127 127 127 127 127 127 127 127 127
19 64 57 127 127 127 127 127 27 127 127 127 127 127 57 127 17 127 127 127 127 127 127 127 127 127 127 127 127 127 8 127 127 127 127 127 127 23 127 38 33 11 127 127 28 127 127 127 127 0 127 8 127 127 56 127 127 127 127 127 8 127 127 26 80 127 127 127 127 127 59 127 127 67 21 127 127 127 127 127 127 127 127 127 127 127
127 127 127 127 127 127 127 9 127 127 127 22 127 127 30 127 127 127 127 20 127 43 127 127 127 127 6 127 127 127 127 5 127 127 127 18 13 127 28 127 127 127 127 127 127 127 127 127 11 127 0 127 127 127 127 127 127 127 23 127 127 127 127 127 127 127 22 127 6 127 127 127 127 127 127 127 127 127 127 127 127 127 127 127 127 127
15 127 127 127 127 127 127 127 21 127 127 127 127 127 49 127 10 39 127 127 127 127 127 127 127 127 127 127 127 127 6 127 127 127 127 127 127 21 127 127 127 3 127 127 29 127 127 127 127 8 127 0 127 127 59 127 127 127 127 127 7 127 127 29 84 127 127 127 127 127 127 127 127 127 17 127 127 127 127 127 127 127 127 127 127 127
127 127 127 29 127 127 23 127 127 127 127 127 15 127 127 24 127 127 46 127 3 127 127 127 20 127 127 26 127 28 127 127 127 21 31 127 127 127 127 127 127 127 127 32 127 26 127 14 127 127 127 127 0 22 127 127 14 24 127 127 127 27 18 127 62 14 127 127 127 127 127 127 29 127 127 20 25 41 127 30 22 4 127 127 127 20
127 127 127 127 18 127 12 127 127 127 127 127 28 127 127 127 127 127 32 127 24 23 35 127 13 127 127 127 127 37 127 127 127 127 15 48 127 127 35 127 127 127 127 29 127 17 127 17 127 127 127 127 22 0 127 17 127 127 127 12 127 14 27 127 127 10 127 127 127 22 127 127 11 127 127 23 127 29 127 127 127 127 127 127 127 17
127 9 13 127 127 23 127 127 127 127 19 127 127 9 127 127 127 127 127 127 127 127 127 25 127 127 127 127 127 127 53 127 127 127 127 127 127 41 127 31 25 127 127 127 30 127 127 127 127 56 127 59 127 127 0 127 127 127 127 127 127 127 127 30 26 127 127 127 127 127 7 12 127 13 127 127 36 127 26 127 127 127 127 127 23 127
127 127 127 127 17 127 22 127 127 127 127 127 127 127 127 127 127 127 28 127 127 13 127 127 26 127 127 127 127 49 127 127 127 127 19 40 43 127 36 127 127 127 127 127 127 127 32 127 127 127 127 127 127 17 127 0 127 127 34 6 127 22 127 127 127 127 127 127 127 10 127 127 14 127 127 127 127 29 127 127 127 127 127 127 127 127
127 127 127 127 127 24 127 127 127 12 24 127 23 127 127 20 127 127 127 127 11 127 127 127 28 127 127 22 127 23 127 127 127 8 127 127 127 127 127 127 127 127 127 127 127 127 127 27 127 127 127 127 14 127 127 127 0 21 127 127 127 127 16 127 50 127 127 127 127 127 127 32 127 127 127 127 30 47 21 16 127 9 127 19 127 127
127 127 12 34 127 127 127 127 127 127 6 127 19 127 127 2 127 127 127 127 23 127 127 20 127 127 127 2 127 127 127 127 127 18 127 127 127 127 127 24 31 127 34 127 34 127 127 30 127 127 127 127 24 127 127 127 21 0 127 127 127 127 36 127 127 127 127 30 127 127 127 20 127 127 127 30 15 127 127 127 21 22 127 16 4 127
127 127 127 127 20 127 127 127 127 127 127 4 127 127 127 127 127 127 62 15 127 21 6 127 127 127 22 127 127 127 127 127 127 127 127 13 9 127 12 127 127 127 127 127 127 127 3 127 19 127 23 127 127 127 127 34 127 127 0 33 127 127 127 127 127 127 8 127 127 24 127 127 127 127 127 127 127 127 127 127 127 127 127 127 127 127
127 127 127 127 14 127 18 127 127 127 127 127 127 127 127 127 127 127 29 127 127 14 32 127 21 127 127 127 127 46 127 127 127 127 15 42 127 127 34 127 127 127 127 32 127 21 32 127 127 127 127 127 127 12 127 6 127 127 33 0 127 17 127 127 127 21 36 127 127 12 127 127 11 127 127 127 127 29 127 127 127 127 127 127 127 25
22 127 127 127 127 127 127 127 29 127 127 127 127 127 55 127 18 46 127 127 127 127 127 127 127 127 127 127 127 127 12 127 127 127 127 127 127 28 127 127 127 8 127 127 127 127 127 127 127 8 127 7 127 127 127 127 127 127 127 127 0 127 127 34 88 127 127 44 127 127 127 127 127 127 127 127 127 127 127 127 127 127 60 127 127 127
127 127 127 20 9 127 26 127 127 127 127 127 26 127 127 127 127 127 127 127 127 127 22 127 27 25 127 127 127 127 127 127 127 127 4 127 127 127 21 127 127 127 127 15 127 4 127 15 127 127 127 127 27 14 127 22 127 127 127 17 127 0 39 127 127 14 127 127 127 19 127 127 24 127 127 16 127 43 127 127 127 127 127 127 127 10
127 127 127 127 127 38 20 127 127 23 127 127 32 127 127 35 127 127 37 127 16 127 127 127 16 127 127 127 127 11 127 127 127 23 127 127 127 127 127 127 127 127 127 127 127 127 127 29 127 127 127 127 18 27 127 127 16 36 127 127 127 39 0 127 63 26 127 127 127 127 127 127 28 127 127 127 127 31 35 23 127 16 127 34 127 35
22 38 32 127 127 49 127 127 31 127 127 127 127 37 127 127 28 127 127 127 127 127 127 20 127 127 127 127 18 127 23 127 127 127 127 127 127 17 127 21 8 32 127 127 8 127 127 127 127 26 127 29 127 127 30 127 127 127 127 127 34 127 127 0 54 127 127 30 127 127 33 40 127 41 22 127 37 127 127 127 127 127 127 127 35 127
74 23 34 127 127 26 127 127 127 40 38 127 127 24 127 127 81 127 127 127 127 127 127 51 78 127 127 127 127 64 78 127 127 42 127 127 127 67 127 127 51 127 127 127 56 127 127 127 127 80 127 84 62 127 26 127 50 127 127 127 88 127 63 54 0 127 127 127 127 127 27 23 127 22 127 127 127 94 29 41 127 58 127 32 127 127
127 127 127 23 21 127 18 127 127 127 127 127 18 127 127 35 127 127 127 127 17 127 127 127 18 127 127 127 127 37 127 127 127 127 17 127 127 127 33 127 127 127 127 23 127 14 127 7 127 127 127 127 14 10 127 127 127 127 127 21 127 14 26 127 127 0 127 127 127 127 127 127 20 127 127 14 127 38 127 43 23 18 127 127 127 10
127 127 127 127 22 127 127 21 127 127 127 4 127 127 31 127 127 127 127 8 127 26 4 127 127 17 20 127 127 127 127 20 21 127 24 19 11 127 6 127 127 127 127 20 127 24 7 127 22 127 22 127 127 127 127 127 127 127 8 36 127 127 127 127 127 127 0 127 21 127 127 127 127 127 127 127 127 127 127 127 127 127 19 127 127 127
22 127 34 23 127 127 127 127 19 127 127 127 27 127 39 32 27 9 127 42 127 127 127 17 127 28 127 127 17 127 127 127 25 127 127 127 127 18 127 12 25 37 16 31 22 127 127 36 127 127 127 127 127 127 127 127 127 30 127 127 44 127 127 30 127 127 127 0 127 127 127 127 127 127 19 29 17 127 127 127 20 127 31 127 28 127
127 127 127 127 127 127 127 3 127 127 127 127 127 127 24 127 127 47 127 17 127 127 127 127 127 31 1 127 127 127 127 1 127 127 127 127 15 127 127 127 127 127 127 127 127 127 127 127 16 127 6 127 127 127 127 127 127 127 127 127 127 127 127 127 127 127 21 127 0 127 127 127 127 127 127 127 127 127 127 127 127 127 26 127 127 127
127 127 127 127 10 127 30 127 127 127 127 26 127 127 127 127 127 127 38 127 127 3 24 127 127 127 127 127 127 127 127 127 127 127 15 30 33 127 28 127 127 127 127 127 127 22 22 127 39 127 127 127 127 22 127 10 127 127 24 12 127 19 127 127 127 127 127 127 127 0 127 127 23 127 127 127 127 39 127 127 127 127 127 127 127 127
127 5 8 127 127 17 127 127 127 127 13 127 127 3 127 127 127 127 127 127 127 127 127 24 127 127 127 127 127 127 127 127 127 127 127 127 127 127 127 127 27 127 127 127 32 127 127 127 127 59 127 127 127 127 7 127 127 127 127 127 127 127 127 33 27 127 127 127 127 127 0 6 127 8 127 127 127 127 127 127 127 127 127 18 18 127
127 2 11 127 127 11 127 127 127 26 14 127 127 3 127 20 127 127 127 127 127 127 127 30 127 127 127 19 127 127 127 127 127 24 127 127 127 127 127 127 33 127 127 127 127 127 127 127 127 127 127 127 127 127 12 127 32 20 127 127 127 127 127 40 23 127 127 127 127 127 6 0 127 2 127 127 35 127 15 31 127 127 127 13 20 127
127 127 127 127 24 127 8 127 127 127 127 127 127 127 127 127 127 127 21 127 127 25 127 127 12 127 127 127 127 35 127 127 127 127 23 52 127 127 43 127 127 127 127 127 127 27 127 127 127 127 127 127 29 11 127 14 127 127 127 11 127 24 28 127 127 20 127 127 127 23 127 127 0 127 127 127 127 20 127 127 127 127 127 127 127 127
127 3 13 127 127 10 127 127 127 25 16 127 127 4 127 21 127 127 127 127 127 127 127 127 127 127 127 127 127 51 127 127 127 127 127 127 127 127 127 127 35 127 127 127 127 127 127 127 127 67 127 127 127 127 13 127 127 127 127 127 127 127 127 41 22 127 127 127 127 127 8 2 127 0 127 127 127 127 14 30 127 127 127 13 127 127
3 127 127 127 127 127 127 127 10 127 127 127 127 127 42 127 9 23 127 127 127 127 127 25 127 127 127 127 5 127 13 127 127 127 127 127 127 6 127 21 127 18 34 127 17 127 127 127 127 21 127 17 127 127 127 127 127 127 127 127 127 127 127 22 127 127 127 19 127 127 127 127 127 127 0 127 36 127 127 127 127 127 127 127 127 127
127 127 127 10 127 127 127 127 127 127 127 127 11 127 127 31 127 28 127 127 22 127 127 127 31 22 127 127 127 127 127 127 18 127 20 127 127 127 26 35 127 127 17 13 127 13 127 8 127 127 127 127 20 23 127 127 127 30 127 127 127 16 127 127 127 14 127 29 127 127 127 127 127 127 127 0 19 127 127 127 11 23 31 127 31 6
127 127 24 20 127 127 127 127 36 127 21 127 11 127 127 17 127 22 127 127 127 127 127 18 127 127 127 16 32 127 127 127 27 127 127 127 127 32 127 18 30 127 19 28 31 127 127 23 127 127 127 127 25 127 36 127 30 15 127 127 127 127 127 37 127 127 127 17 127 127 127 35 127 127 36 19 0 127 127 127 8 26 38 127 15 25
127 127 127 127 127 127 20 127 127 127 127 127 127 127 127 127 127 127 5 127 42 127 127 127 22 127 127 127 127 32 127 127 127 127 43 69 127 127 127 127 127 127 127 127 127 127 127 127 127 127 127 127 41 29 127 29 47 127 127 29 127 43 31 127 94 38 127 127 127 39 127 127 20 127 127 127 127 0 127 53 127 127 127 127 127 127
127 17 20 127 127 4 127 127 127 12 18 127 127 127 127 20 127 127 127 127 127 127 127 127 49 127 127 127 127 37 127 127 127 13 127 127 127 127 127 127 127 127 127 127 127 127 127 127 127 127 127 127 127 127 26 127 21 127 127 127 127 127 35 127 29 127 127 127 127 127 127 15 127 14 127 127 127 127 0 16 127 29 127 5 127 127
127 33 127 127 127 20 43 127 127 7 127 127 39 127 127 29 127 127 59 127 27 127 127 127 39 127 127 127 127 22 127 127 127 13 127 127 127 127 127 127 127 127 127 127 127 127 127 127 127 127 127 127 30 127 127 127 16 127 127 127 127 127 23 127 41 43 127 127 127 127 127 31 127 30 127 127 127 53 16 0 127 26 127 19 127 127
127 127 127 12 127 127 127 127 38 127 127 127 8 127 47 23 127 21 127 127 127 127 127 25 127 25 127 23 36 127 127 127 20 127 127 127 127 36 127 24 127 127 14 20 37 24 127 17 127 127 127 127 22 127 127 127 127 21 127 127 127 127 127 127 127 23 127 20 127 127 127 127 127 127 127 11 8 127 127 127 0 24 33 127 22 18
127 127 127 127 127 127 127 127 127 21 27 127 17 127 127 22 127 127 127 127 2 127 127 127 22 127 127 24 127 26 127 127 127 16 127 127 127 127 127 127 127 127 127 127 127 127 127 18 127 127 127 127 4 127 127 127 9 22 127 127 127 127 16 127 58 18 127 127 127 127 127 127 127 127 127 23 26 127 29 26 24 0 127 26 26 24
127 127 127 22 127 127 127 24 33 127 127 127 127 127 16 127 44 22 127 13 127 127 22 127 127 9 25 127 42 127 127 127 13 127 127 127 26 127 17 127 127 52 19 19 127 31 127 127 127 127 127 127 127 127 127 127 127 127 127 127 60 127 127 127 127 127 19 31 26 127 127 127 127 127 127 31 38 127 127 127 33 127 0 127 127 127
127 15 16 127 127 6 127 127 127 13 13 127 32 15 127 15 127 127 127 127 127 127 127 34 127 127 127 15 127 38 127 127 127 11 127 127 127 127 127 127 127 127 127 127 127 127 127 127 127 127 127 127 127 127 127 127 19 16 127 127 127 127 34 127 32 127 127 127 127 127 18 13 127 13 127 127 127 127 5 19 127 26 127 0 18 127
127 21 10 127 127 23 127 127 127 127 6 127 21 19 127 5 127 127 127 127 127 127 127 16 127 127 127 3 36 127 127 127 127 22 127 127 127 36 127 20 27 127 127 127 30 127 127 127 127 127 127 127 127 127 23 127 127 4 127 127 127 127 127 35 127 127 127 28 127 127 18 20 127 127 127 31 15 127 127 127 22 26 127 18 0 127
127 127 127 14 19 127 27 127 127 127 127 127 16 127 127 127 127 127 127 34 127 127 127 127 27 24 127 127 127 127 127 127 20 127 14 127 127 127 25 127 127 127 22 14 127 8 127 6 127 127 127 127 20 17 127 127 127 127 127 25 127 10 35 127 127 10 127 127 127 127 127 127 127 127 127 6 25 127 127 127 18 24 127 127 127 0
EOF
